c file mc2022_track2_067.cnf
p cnf 98 511
c t wmc
-34 -21 79 -58 -87 0
-14 -43 -98 -92 -24 0
-12 70 -27 -11 -67 0
-42 -44 -32 36 -72 0
89 83 -62 14 -43 0
-34 21 79 -58 87 0
-61 86 -18 68 -76 0
92 24 41 29 -78 0
-1 -4 35 45 -74 0
22 -15 -84 10 -6 0
-60 -81 64 31 90 0
45 -74 5 93 -28 0
92 24 41 -29 78 0
-93 28 52 37 82 0
-11 -67 51 -1 -4 0
-14 43 98 92 24 0
58 -87 26 -88 -19 0
-89 -83 -62 14 -43 0
89 83 -62 -14 43 0
58 87 26 -88 19 0
-34 21 79 58 -87 0
68 76 33 -94 -38 0
-75 66 -97 -17 -91 0
-42 44 -32 36 72 0
29 -78 7 12 70 0
60 -81 64 31 -90 0
80 -13 57 -96 -59 0
60 81 64 31 90 0
80 -13 -57 -96 59 0
-22 -15 -84 -10 -6 0
-68 76 -33 94 38 0
29 78 7 12 -70 0
-22 15 -84 10 -6 0
-75 -66 97 17 91 0
37 -82 -65 23 -54 0
-36 -72 85 73 53 0
96 -59 55 -71 39 0
34 -21 -79 58 87 0
75 66 97 -17 -91 0
30 48 56 80 13 0
-58 -87 26 -88 19 0
-14 43 -98 92 -24 0
73 53 -25 -16 -47 0
92 -24 41 -29 -78 0
-60 81 64 31 -90 0
16 -47 69 89 83 0
-11 67 51 1 -4 0
-36 72 -85 73 53 0
14 43 -98 92 24 0
-3 -2 50 77 -46 0
1 -4 -35 -45 74 0
34 -21 -79 -58 -87 0
-61 86 -18 -68 76 0
14 -43 -98 -92 24 0
23 -54 20 -34 -21 0
75 66 97 17 91 0
-12 70 27 -11 67 0
75 66 -97 -17 91 0
30 -48 56 80 -13 0
-12 -70 27 -11 -67 0
12 70 27 -11 -67 0
23 -54 20 34 21 0
60 81 -64 -31 90 0
94 38 8 -75 66 0
22 -15 84 -10 -6 0
61 86 -18 -68 -76 0
29 -78 -7 -12 70 0
17 -91 95 -3 -2 0
89 -83 62 -14 43 0
71 -39 63 -42 -44 0
-58 -87 -26 88 19 0
12 70 -27 -11 67 0
16 -47 -69 89 -83 0
-31 -90 9 -61 -86 0
-80 -13 -57 96 59 0
68 -76 33 -94 38 0
31 -90 9 61 -86 0
-92 24 -41 29 -78 0
23 54 -20 -34 -21 0
89 -83 -62 -14 -43 0
96 59 55 71 39 0
-10 -6 40 30 -48 0
-94 -38 8 75 -66 0
10 6 40 -30 48 0
-30 -48 56 -80 -13 0
12 -70 27 -11 67 0
-80 13 57 -96 -59 0
71 39 -63 42 44 0
-29 78 -7 -12 70 0
73 53 -25 16 47 0
1 -4 35 -45 -74 0
37 82 -65 23 54 0
12 70 27 11 67 0
10 -6 40 -30 -48 0
1 4 35 -45 74 0
10 6 40 30 -48 0
-34 21 -79 -58 -87 0
-80 13 -57 -96 59 0
14 -43 -98 92 -24 0
94 -38 -8 75 -66 0
68 76 -33 94 -38 0
77 46 -49 22 -15 0
17 -91 -95 3 -2 0
77 46 -49 -22 15 0
-1 4 -35 45 -74 0
-36 -72 -85 73 -53 0
-11 67 -51 1 4 0
11 -67 -51 -1 -4 0
-17 -91 -95 -3 -2 0
36 72 -85 -73 53 0
-71 39 63 42 44 0
-23 -54 20 34 -21 0
16 47 -69 89 83 0
31 90 -9 -61 86 0
80 -13 57 96 59 0
12 -70 -27 11 67 0
-29 -78 7 -12 70 0
-12 -70 -27 -11 67 0
-89 83 62 -14 43 0
-10 6 -40 -30 48 0
-36 -72 -85 -73 53 0
-68 76 -33 -94 -38 0
-60 81 -64 -31 -90 0
-96 59 55 71 -39 0
36 -72 85 -73 53 0
45 -74 -5 93 28 0
-10 6 40 30 48 0
10 -6 -40 -30 48 0
37 82 -65 -23 -54 0
-10 -6 40 -30 48 0
-17 -91 95 -3 2 0
-42 -44 32 -36 -72 0
-96 -59 -55 -71 39 0
31 90 9 -61 -86 0
-10 6 -40 30 -48 0
-71 -39 -63 -42 -44 0
-30 48 56 80 -13 0
-23 54 -20 -34 21 0
-61 86 18 68 76 0
-30 48 -56 80 13 0
-31 90 -9 61 86 0
-29 -78 -7 -12 -70 0
-11 -67 -51 1 -4 0
-17 91 95 3 2 0
-17 -91 -95 3 2 0
-37 82 -65 23 -54 0
-73 -53 25 -16 47 0
11 -67 51 1 -4 0
-94 38 8 -75 -66 0
71 39 -63 -42 -44 0
36 72 85 -73 -53 0
77 -46 -49 22 15 0
89 -83 62 14 -43 0
-10 -6 -40 -30 -48 0
14 43 98 92 -24 0
12 -70 -27 -11 -67 0
94 38 -8 75 66 0
-60 -81 64 -31 -90 0
-16 47 69 -89 -83 0
-94 38 -8 75 -66 0
96 -59 -55 71 39 0
68 -76 -33 94 38 0
-14 -43 -98 92 24 0
-92 24 41 -29 -78 0
42 44 32 -36 -72 0
-29 78 -7 12 -70 0
-94 -38 -8 75 66 0
-75 66 97 -17 91 0
-77 -46 -49 -22 15 0
94 -38 8 -75 -66 0
68 76 33 94 38 0
61 -86 -18 -68 76 0
-22 -15 84 10 -6 0
80 13 -57 96 59 0
-77 46 49 -22 15 0
29 78 -7 -12 -70 0
-75 -66 -97 -17 91 0
-14 -43 98 -92 24 0
29 -78 -7 12 -70 0
68 -76 -33 -94 -38 0
-71 -39 63 -42 44 0
45 74 5 -93 -28 0
92 -24 -41 29 -78 0
93 -28 52 37 82 0
-93 28 52 -37 -82 0
-80 13 -57 96 -59 0
77 -46 49 22 -15 0
16 47 69 -89 83 0
-92 -24 -41 29 78 0
-37 -82 65 23 -54 0
45 74 -5 -93 28 0
-75 66 -97 17 91 0
61 -86 18 68 76 0
-30 -48 -56 80 -13 0
-37 82 65 23 54 0
-60 81 -64 31 90 0
75 66 -97 17 -91 0
34 21 -79 58 -87 0
-16 -47 -69 -89 -83 0
73 -53 25 16 47 0
14 -43 98 -92 -24 0
-73 53 -25 16 -47 0
42 44 32 36 72 0
96 59 55 -71 -39 0
17 -91 95 3 2 0
3 2 50 -77 46 0
36 72 85 73 53 0
-1 -4 -35 -45 -74 0
34 -21 79 -58 87 0
22 -15 84 10 6 0
14 43 -98 -92 -24 0
23 -54 -20 -34 21 0
-96 59 -55 71 39 0
3 -2 50 77 46 0
42 -44 32 -36 72 0
-23 -54 20 -34 21 0
3 -2 -50 77 -46 0
-34 21 -79 58 87 0
-68 76 33 -94 38 0
77 -46 49 -22 15 0
80 -13 -57 96 -59 0
37 -82 65 -23 -54 0
-11 -67 51 1 4 0
-60 -81 -64 -31 90 0
-29 -78 7 12 -70 0
-58 -87 -26 -88 -19 0
29 78 -7 12 70 0
16 47 -69 -89 -83 0
45 74 5 93 28 0
42 44 -32 36 -72 0
58 -87 26 88 19 0
23 54 20 34 -21 0
-10 6 40 -30 -48 0
58 87 -26 88 19 0
-71 -39 63 42 -44 0
80 13 57 -96 59 0
42 -44 32 36 -72 0
23 54 -20 34 21 0
-1 4 35 -45 -74 0
29 -78 7 -12 -70 0
3 2 -50 -77 -46 0
-71 39 63 -42 -44 0
-45 74 5 -93 28 0
77 46 49 22 15 0
-96 -59 55 71 39 0
-42 44 32 36 -72 0
3 -2 -50 -77 46 0
-3 -2 -50 77 46 0
93 28 -52 37 82 0
-61 86 18 -68 -76 0
-96 -59 55 -71 -39 0
-68 76 33 94 -38 0
-37 -82 -65 23 54 0
10 -6 -40 30 -48 0
-36 -72 85 -73 -53 0
58 -87 -26 -88 19 0
-36 72 -85 -73 -53 0
-93 28 -52 -37 82 0
12 -70 27 11 -67 0
71 -39 -63 42 -44 0
77 -46 -49 -22 -15 0
-22 -15 -84 10 6 0
73 -53 25 -16 -47 0
31 -90 -9 -61 -86 0
94 -38 8 75 66 0
-77 -46 49 -22 -15 0
-30 48 -56 -80 -13 0
-92 -24 41 -29 78 0
-45 -74 5 -93 -28 0
22 15 84 10 -6 0
16 -47 69 -89 -83 0
10 -6 40 30 48 0
31 90 -9 61 -86 0
-29 -78 -7 12 70 0
-77 46 49 22 -15 0
-31 90 9 -61 86 0
60 81 64 -31 -90 0
-3 2 50 77 46 0
36 -72 -85 73 53 0
96 -59 -55 -71 -39 0
-23 -54 -20 34 21 0
29 78 7 -12 70 0
-94 -38 8 -75 66 0
-16 47 69 89 83 0
75 -66 97 -17 91 0
-80 -13 57 96 -59 0
-58 87 -26 -88 19 0
30 48 -56 -80 13 0
73 -53 -25 16 -47 0
-31 90 -9 -61 -86 0
-31 -90 -9 61 -86 0
93 -28 -52 -37 82 0
-17 91 -95 -3 2 0
89 83 62 -14 -43 0
-1 -4 -35 45 74 0
30 48 -56 80 -13 0
17 -91 -95 -3 2 0
37 82 65 23 -54 0
-75 -66 -97 17 -91 0
-31 -90 9 61 86 0
22 15 -84 10 6 0
92 -24 -41 -29 78 0
1 -4 35 45 74 0
17 91 -95 3 2 0
11 67 51 1 4 0
-58 87 -26 88 -19 0
73 53 25 16 -47 0
60 81 -64 31 -90 0
17 91 95 -3 2 0
-58 87 26 88 19 0
93 -28 -52 37 -82 0
42 -44 -32 36 72 0
-93 -28 52 -37 82 0
92 -24 41 29 78 0
-16 47 -69 -89 83 0
11 67 51 -1 -4 0
17 91 -95 -3 -2 0
-12 70 -27 11 67 0
3 2 -50 77 46 0
-30 -48 56 80 13 0
-45 -74 -5 93 -28 0
-23 54 20 -34 -21 0
93 28 52 -37 82 0
3 -2 50 -77 -46 0
-73 53 25 16 47 0
-37 -82 -65 -23 -54 0
37 -82 -65 -23 54 0
-45 74 -5 -93 -28 0
-3 2 -50 77 -46 0
-11 67 -51 -1 -4 0
-77 -46 -49 22 -15 0
-29 78 7 12 70 0
61 86 18 -68 76 0
-73 53 -25 -16 47 0
-68 -76 33 94 38 0
30 -48 56 -80 13 0
-92 -24 -41 -29 -78 0
-73 -53 -25 16 47 0
14 -43 98 92 24 0
58 -87 -26 88 -19 0
16 47 69 89 -83 0
-1 4 35 45 74 0
-42 -44 -32 -36 72 0
93 28 52 37 -82 0
68 -76 33 94 -38 0
1 4 35 45 -74 0
75 -66 -97 -17 -91 0
-96 59 55 -71 39 0
-71 -39 -63 42 44 0
71 -39 -63 -42 44 0
23 -54 -20 34 -21 0
-94 38 8 75 66 0
12 70 -27 11 -67 0
-22 15 -84 -10 6 0
-61 -86 18 68 -76 0
-45 74 -5 93 28 0
-45 -74 5 93 28 0
61 86 -18 68 76 0
30 -48 -56 80 13 0
94 38 -8 -75 -66 0
-14 43 98 -92 -24 0
-42 44 32 -36 72 0
-37 82 -65 -23 54 0
-17 91 95 -3 -2 0
-22 -15 84 -10 6 0
11 67 -51 1 -4 0
-89 83 -62 -14 -43 0
93 -28 52 -37 -82 0
11 -67 51 -1 4 0
-17 91 -95 3 -2 0
-71 39 -63 42 -44 0
-96 59 -55 -71 -39 0
1 4 -35 -45 -74 0
73 53 25 -16 47 0
94 -38 -8 -75 66 0
80 13 -57 -96 -59 0
-61 -86 -18 -68 -76 0
-73 -53 -25 -16 -47 0
11 67 -51 -1 4 0
71 -39 63 42 44 0
10 6 -40 -30 -48 0
-16 -47 69 89 -83 0
-93 -28 -52 37 82 0
-92 24 41 29 78 0
-58 87 26 -88 -19 0
-93 28 -52 37 -82 0
-89 -83 -62 -14 43 0
1 4 -35 45 74 0
89 -83 -62 14 43 0
-80 -13 57 -96 59 0
-68 -76 -33 -94 38 0
-60 81 64 -31 90 0
-58 -87 26 88 -19 0
68 76 -33 -94 38 0
71 39 63 -42 44 0
-3 -2 -50 -77 -46 0
-23 54 20 34 21 0
71 39 63 42 -44 0
61 -86 18 -68 -76 0
-96 -59 -55 71 -39 0
-89 -83 62 -14 -43 0
22 15 84 -10 6 0
-92 24 -41 -29 78 0
-68 -76 -33 94 -38 0
-11 67 51 -1 4 0
-23 -54 -20 -34 -21 0
-68 -76 33 -94 -38 0
23 54 20 -34 21 0
-73 53 25 -16 -47 0
36 -72 85 73 -53 0
-89 83 -62 14 43 0
36 72 -85 73 -53 0
-45 74 5 93 -28 0
-93 -28 -52 -37 -82 0
31 -90 -9 61 86 0
-61 -86 -18 68 76 0
-37 82 65 -23 -54 0
73 -53 -25 -16 47 0
-36 72 85 73 -53 0
-22 15 84 -10 -6 0
58 87 26 88 -19 0
77 46 49 -22 -15 0
-37 -82 65 -23 54 0
92 24 -41 29 78 0
42 -44 -32 -36 -72 0
-75 -66 97 -17 -91 0
22 15 -84 -10 -6 0
-17 -91 95 3 -2 0
-10 -6 -40 30 48 0
31 90 9 61 86 0
-16 47 -69 89 -83 0
1 -4 -35 45 -74 0
-89 83 62 14 -43 0
-1 4 -35 -45 74 0
-93 -28 52 37 -82 0
-42 44 -32 -36 -72 0
-77 46 -49 -22 -15 0
30 48 56 -80 -13 0
-14 43 -98 -92 24 0
61 86 18 68 -76 0
30 -48 -56 -80 -13 0
-12 -70 -27 11 -67 0
-22 15 84 10 6 0
-80 -13 -57 -96 -59 0
-89 -83 62 14 43 0
17 91 95 3 -2 0
-77 -46 49 22 15 0
42 44 -32 -36 72 0
-3 2 50 -77 -46 0
-34 -21 79 58 87 0
-1 -4 35 -45 74 0
-3 -2 50 -77 46 0
14 43 98 -92 24 0
37 82 65 -23 54 0
-30 48 56 -80 13 0
-30 -48 -56 -80 13 0
-11 -67 -51 -1 4 0
-16 -47 -69 89 83 0
22 -15 -84 -10 6 0
34 21 -79 -58 87 0
-80 13 57 96 59 0
96 59 -55 71 -39 0
-77 46 -49 22 15 0
45 -74 -5 -93 -28 0
34 21 79 -58 -87 0
-14 -43 98 92 -24 0
60 -81 -64 31 90 0
-92 -24 41 29 -78 0
-73 -53 25 16 -47 0
96 59 -55 -71 39 0
31 -90 9 -61 86 0
34 21 79 58 87 0
-16 -47 69 -89 83 0
-12 70 27 11 -67 0
-71 39 -63 -42 44 0
-31 90 9 61 -86 0
-29 78 7 -12 -70 0
37 -82 65 23 54 0
-94 38 -8 -75 66 0
-3 2 -50 -77 46 0
80 13 57 96 -59 0
10 6 -40 30 48 0
60 -81 64 -31 90 0
-60 -81 -64 31 -90 0
58 87 -26 -88 -19 0
-94 -38 -8 -75 -66 0
-36 72 85 -73 53 0
-31 -90 -9 -61 86 0
96 -59 55 71 -39 0
34 -21 79 58 -87 0
61 -86 -18 68 -76 0
-34 -21 -79 -58 87 0
89 83 62 14 43 0
60 -81 -64 -31 -90 0
94 38 8 75 -66 0
-45 -74 -5 -93 28 0
16 -47 -69 -89 83 0
45 -74 5 -93 28 0
11 -67 -51 1 4 0
-42 -44 32 36 72 0
-61 -86 18 -68 76 0
92 24 -41 -29 -78 0
-23 54 -20 34 -21 0
93 28 -52 -37 -82 0
36 -72 -85 -73 -53 0
-75 66 97 17 -91 0
75 -66 97 17 -91 0
-34 -21 -79 58 -87 0
3 2 50 77 -46 0
-12 -70 27 11 67 0
75 -66 -97 17 91 0
c p weight 1 0.97867439 0
c p weight -1 0.02132561 0
c p weight 2 0.97214369 0
c p weight -2 0.02785631 0
c p weight 3 0.972579 0
c p weight -3 0.027421 0
c p weight 4 0.97675122 0
c p weight -4 0.02324878 0
c p weight 5 0.95203408 0
c p weight -5 0.04796592 0
c p weight 6 0.9953605 0
c p weight -6 0.0046395 0
c p weight 7 0.00233503 0
c p weight -7 0.99766497 0
c p weight 8 0.00831725 0
c p weight -8 0.99168275 0
c p weight 9 0.98214862 0
c p weight -9 0.01785138 0
c p weight 10 0.97189782 0
c p weight -10 0.02810218 0
c p weight 11 0.97062204 0
c p weight -11 0.02937796 0
c p weight 12 0.99237928 0
c p weight -12 0.00762072 0
c p weight 13 0.98500007 0
c p weight -13 0.01499993 0
c p weight 14 0.95118435 0
c p weight -14 0.04881565 0
c p weight 15 0.95307207 0
c p weight -15 0.04692793 0
c p weight 16 0.96356973 0
c p weight -16 0.03643027 0
c p weight 17 0.97941203 0
c p weight -17 0.02058797 0
c p weight 18 0.02551815 0
c p weight -18 0.97448185 0
c p weight 19 0.99617786 0
c p weight -19 0.00382214 0
c p weight 20 0.03750474 0
c p weight -20 0.96249526 0
c p weight 21 0.97106028 0
c p weight -21 0.02893972 0
c p weight 22 0.95837378 0
c p weight -22 0.04162622 0
c p weight 23 0.97816815 0
c p weight -23 0.02183185 0
c p weight 24 0.99404143 0
c p weight -24 0.00595857 0
c p weight 25 0.02618758 0
c p weight -25 0.97381242 0
c p weight 26 0.00056687 0
c p weight -26 0.99943313 0
c p weight 27 0.99506555 0
c p weight -27 0.00493445 0
c p weight 28 0.97003022 0
c p weight -28 0.02996978 0
c p weight 29 0.96065836 0
c p weight -29 0.03934164 0
c p weight 30 0.97337613 0
c p weight -30 0.02662387 0
c p weight 31 0.9873183 0
c p weight -31 0.0126817 0
c p weight 32 0.97994303 0
c p weight -32 0.02005697 0
c p weight 33 0.96610545 0
c p weight -33 0.03389455 0
c p weight 34 0.95701393 0
c p weight -34 0.04298607 0
c p weight 35 0.03851677 0
c p weight -35 0.96148323 0
c p weight 36 0.97426062 0
c p weight -36 0.02573938 0
c p weight 37 0.95905815 0
c p weight -37 0.04094185 0
c p weight 38 0.97114264 0
c p weight -38 0.02885736 0
c p weight 39 0.9914242 0
c p weight -39 0.0085758 0
c p weight 40 0.02944313 0
c p weight -40 0.97055687 0
c p weight 41 0.0438326 0
c p weight -41 0.9561674 0
c p weight 42 0.98069014 0
c p weight -42 0.01930986 0
c p weight 43 0.95160117 0
c p weight -43 0.04839883 0
c p weight 44 0.98073481 0
c p weight -44 0.01926519 0
c p weight 45 0.99189392 0
c p weight -45 0.00810608 0
c p weight 46 0.97660092 0
c p weight -46 0.02339908 0
c p weight 47 0.97618073 0
c p weight -47 0.02381927 0
c p weight 48 0.95731386 0
c p weight -48 0.04268614 0
c p weight 49 0.99474533 0
c p weight -49 0.00525467 0
c p weight 50 0.03429582 0
c p weight -50 0.96570418 0
c p weight 51 0.9708066 0
c p weight -51 0.0291934 0
c p weight 52 0.02344965 0
c p weight -52 0.97655035 0
c p weight 53 0.99831444 0
c p weight -53 0.00168556 0
c p weight 54 0.98043113 0
c p weight -54 0.01956887 0
c p weight 55 0.96286588 0
c p weight -55 0.03713412 0
c p weight 56 0.96069016 0
c p weight -56 0.03930984 0
c p weight 57 0.04957618 0
c p weight -57 0.95042382 0
c p weight 58 0.96655768 0
c p weight -58 0.03344232 0
c p weight 59 0.95951461 0
c p weight -59 0.04048539 0
c p weight 60 0.97062711 0
c p weight -60 0.02937289 0
c p weight 61 0.99365215 0
c p weight -61 0.00634785 0
c p weight 62 0.96213042 0
c p weight -62 0.03786958 0
c p weight 63 0.03258693 0
c p weight -63 0.96741307 0
c p weight 64 0.952571 0
c p weight -64 0.047429 0
c p weight 65 0.04755908 0
c p weight -65 0.95244092 0
c p weight 66 0.99366885 0
c p weight -66 0.00633115 0
c p weight 67 0.99927533 0
c p weight -67 0.00072467 0
c p weight 68 0.9595522 0
c p weight -68 0.0404478 0
c p weight 69 0.0068311 0
c p weight -69 0.9931689 0
c p weight 70 0.96053279 0
c p weight -70 0.03946721 0
c p weight 71 0.95627348 0
c p weight -71 0.04372652 0
c p weight 72 0.99020607 0
c p weight -72 0.00979393 0
c p weight 73 0.98862611 0
c p weight -73 0.01137389 0
c p weight 74 0.98637458 0
c p weight -74 0.01362542 0
c p weight 75 0.96014056 0
c p weight -75 0.03985944 0
c p weight 76 0.98448139 0
c p weight -76 0.01551861 0
c p weight 77 0.95441915 0
c p weight -77 0.04558085 0
c p weight 78 0.95960756 0
c p weight -78 0.04039244 0
c p weight 79 0.95103823 0
c p weight -79 0.04896177 0
c p weight 80 0.95850973 0
c p weight -80 0.04149027 0
c p weight 81 0.95054394 0
c p weight -81 0.04945606 0
c p weight 82 0.97018876 0
c p weight -82 0.02981124 0
c p weight 83 0.96199989 0
c p weight -83 0.03800011 0
c p weight 84 0.01831148 0
c p weight -84 0.98168852 0
c p weight 85 0.98561859 0
c p weight -85 0.01438141 0
c p weight 86 0.96424024 0
c p weight -86 0.03575976 0
c p weight 87 0.98518085 0
c p weight -87 0.01481915 0
c p weight 88 0.95373984 0
c p weight -88 0.04626016 0
c p weight 89 0.96536926 0
c p weight -89 0.03463074 0
c p weight 90 0.96221682 0
c p weight -90 0.03778318 0
c p weight 91 0.98296807 0
c p weight -91 0.01703193 0
c p weight 92 0.96072626 0
c p weight -92 0.03927374 0
c p weight 93 0.97436369 0
c p weight -93 0.02563631 0
c p weight 94 0.97476507 0
c p weight -94 0.02523493 0
c p weight 95 0.00440808 0
c p weight -95 0.99559192 0
c p weight 96 0.99162293 0
c p weight -96 0.00837707 0
c p weight 97 0.97435033 0
c p weight -97 0.02564967 0
c p weight 98 0.03475907 0
c p weight -98 0.96524093 0

